5	6	7	8	9	10	11	12	13	14	15	16	17	18	19	20	21	22	23	24
	2	4	3	4	1	5	1	5	1	5	1	2	2	2	1	1	1	5	2
	8	9	9	10	9	13	9	13	9	13	6	6	6	6	7	7	9	17
	16	13	15	17	17	21	17	21	17	21	10	10	10	10	13	13	17	32
	24	19	21	23	25	29	25	29	25	29	18	14	14	14	19	19	25	47
	29	24	27	29	33	37	33	37	33	37	26	18	18	18	25	25	33
	34	30	33	37	41	45	41	45	41	45	34	22	22	22	31	31	40
	39	36	41	45	49	53	49	53	49	53	38	26	26	26	37	37	47
	44	40	49	53	57		57		57		42	30	32	31	43	43	51
	49	46	57								46	34	38	37	49	49	57
	54	51									50	38	44	43	55	55
	58	57									54	42	50	49
											58	46	54	55
												50	58
												54
												58
